26
1 0 11
2 0 11
3 0 11
3 2 13
4 0 14
4 1 16
4 2 4
4 3 6
5 0 15
6 5 4
7 0 15
7 1 2
7 3 16
7 4 10
7 5 6
8 0 14
8 4 1
8 7 2
9 0 9
9 1 15
9 4 5
9 6 7
9 7 7
10 1 6
10 4 3
10 6 6
11 0 15
11 1 12
11 4 12
11 6 10
11 9 6
11 10 5
12 2 9
12 4 5
12 6 6
12 7 11
13 1 14
13 2 10
13 3 2
13 5 8
13 7 15
13 8 3
13 12 3
14 1 2
14 3 12
14 4 12
14 5 3
14 6 8
14 7 12
14 8 12
14 10 2
15 1 1
15 8 12
15 9 3
15 10 9
15 12 14
16 1 7
16 2 14
16 3 8
16 4 1
16 9 10
16 11 10
16 13 13
16 14 8
16 15 13
17 0 11
17 2 16
17 5 8
17 6 2
17 8 12
17 11 16
17 13 12
18 5 15
18 6 6
18 7 3
18 8 3
18 9 6
18 10 3
18 13 12
18 17 8
19 0 9
19 4 6
19 5 13
19 10 12
19 11 4
19 14 1
19 16 14
19 18 16
20 1 4
20 2 12
20 3 11
20 9 6
20 12 2
20 13 14
20 14 3
20 15 5
21 3 9
21 5 7
21 6 8
21 7 3
21 9 13
21 12 7
21 13 10
21 17 13
21 19 9
22 2 7
22 5 9
22 8 10
22 10 2
22 13 13
22 14 1
22 17 1
22 18 3
22 20 13
22 21 2
23 0 12
23 1 11
23 2 8
23 3 6
23 5 14
23 6 1
23 11 12
23 12 11
23 14 16
23 15 8
23 16 5
23 17 13
23 18 2
23 20 10
23 22 16
24 2 9
24 3 7
24 5 3
24 6 12
24 8 5
24 11 4
24 13 2
24 16 6
24 17 7
24 18 14
24 21 11
24 22 14
25 0 6
25 1 13
25 3 5
25 4 3
25 5 1
25 6 6
25 7 12
25 8 7
25 9 7
25 12 4
25 14 16
25 15 12
25 16 6
25 18 5
25 20 11
25 21 16
25 24 8
